%%%mzn-stat: initTime=0.005256797
%%%mzn-stat: objective=356
%%%mzn-stat: nodes=539
%%%mzn-stat: restarts=0
%%%mzn-stat: peakDepth=81
%%%mzn-stat: solveTime=0.05402134
%%%mzn-stat: variables=504
%%%mzn-stat: propagators=354
%%%mzn-stat: failures=379
%%%mzn-stat: propagations=114139
%%%mzn-stat: nogoods=379
%%%mzn-stat: AverageConflictSize=2.287598944591029
%%%mzn-stat: NumUnitNogoodsLearned=355
%%%mzn-stat: AverageLearnedNogoodLength=3.3403693931398415
%%%mzn-stat: AverageBacktrackAmount=0
%%%mzn-stat: AverageLbd=1.3113456464379947
%%%mzn-stat-end
maxleg = 356;
succ = array1d(1..20,[7, 20, 5, 1, 4, 16, 8, 18, 6, 17, 14, 13, 19, 15, 12, 10, 11, 9, 2, 3]);
% time elapsed: 7.11 s
----------
==========
% time elapsed: 7.11 s
%%%mzn-stat: initTime=0.005256797
%%%mzn-stat: objective=356
%%%mzn-stat: nodes=539
%%%mzn-stat: restarts=0
%%%mzn-stat: peakDepth=81
%%%mzn-stat: solveTime=0.054028269
%%%mzn-stat: variables=504
%%%mzn-stat: propagators=354
%%%mzn-stat: failures=379
%%%mzn-stat: propagations=114139
%%%mzn-stat: nogoods=379
%%%mzn-stat: AverageConflictSize=2.287598944591029
%%%mzn-stat: NumUnitNogoodsLearned=355
%%%mzn-stat: AverageLearnedNogoodLength=3.3403693931398415
%%%mzn-stat: AverageBacktrackAmount=0
%%%mzn-stat: AverageLbd=1.3113456464379947
%%%mzn-stat-end
